
<<< setup

Tried aggregator 1 time.
LP Presolve eliminated 104 rows and 69 columns.
Reduced LP has 3 rows, 22 columns, and 22 nonzeros.
Presolve time = 0.00 sec. (0.04 ticks)

Iteration log . . .
Iteration:     1   Dual objective     =          1436.039736
main returns 0

<<< main


<<< done

